p cnf 301 3319
-1 -253 0
-2 -254 0
-3 -255 0
-4 -256 0
-5 -257 0
-6 -258 0
-7 -259 0
-1 -176 0
-2 -177 0
-3 -178 0
-4 -179 0
-5 -180 0
-6 -181 0
-7 -182 0
-1 -148 0
-2 -149 0
-3 -150 0
-4 -151 0
-5 -152 0
-6 -153 0
-7 -154 0
-1 -211 0
-2 -212 0
-3 -213 0
-4 -214 0
-5 -215 0
-6 -216 0
-7 -217 0
-1 -239 0
-2 -240 0
-3 -241 0
-4 -242 0
-5 -243 0
-6 -244 0
-7 -245 0
-1 -141 0
-2 -142 0
-3 -143 0
-4 -144 0
-5 -145 0
-6 -146 0
-7 -147 0
-1 -267 0
-2 -268 0
-3 -269 0
-4 -270 0
-5 -271 0
-6 -272 0
-7 -273 0
-1 -29 0
-2 -30 0
-3 -31 0
-4 -32 0
-5 -33 0
-6 -34 0
-7 -35 0
-1 -183 0
-2 -184 0
-3 -185 0
-4 -186 0
-5 -187 0
-6 -188 0
-7 -189 0
-1 -36 0
-2 -37 0
-3 -38 0
-4 -39 0
-5 -40 0
-6 -41 0
-7 -42 0
-1 -260 0
-2 -261 0
-3 -262 0
-4 -263 0
-5 -264 0
-6 -265 0
-7 -266 0
-1 -246 0
-2 -247 0
-3 -248 0
-4 -249 0
-5 -250 0
-6 -251 0
-7 -252 0
-1 -218 0
-2 -219 0
-3 -220 0
-4 -221 0
-5 -222 0
-6 -223 0
-7 -224 0
-1 -155 0
-2 -156 0
-3 -157 0
-4 -158 0
-5 -159 0
-6 -160 0
-7 -161 0
-1 -43 0
-2 -44 0
-3 -45 0
-4 -46 0
-5 -47 0
-6 -48 0
-7 -49 0
-1 -204 0
-2 -205 0
-3 -206 0
-4 -207 0
-5 -208 0
-6 -209 0
-7 -210 0
-1 -162 0
-2 -163 0
-3 -164 0
-4 -165 0
-5 -166 0
-6 -167 0
-7 -168 0
-8 -267 0
-9 -268 0
-10 -269 0
-11 -270 0
-12 -271 0
-13 -272 0
-14 -273 0
-8 -29 0
-9 -30 0
-10 -31 0
-11 -32 0
-12 -33 0
-13 -34 0
-14 -35 0
-8 -183 0
-9 -184 0
-10 -185 0
-11 -186 0
-12 -187 0
-13 -188 0
-14 -189 0
-8 -36 0
-9 -37 0
-10 -38 0
-11 -39 0
-12 -40 0
-13 -41 0
-14 -42 0
-8 -260 0
-9 -261 0
-10 -262 0
-11 -263 0
-12 -264 0
-13 -265 0
-14 -266 0
-8 -134 0
-9 -135 0
-10 -136 0
-11 -137 0
-12 -138 0
-13 -139 0
-14 -140 0
-8 -190 0
-9 -191 0
-10 -192 0
-11 -193 0
-12 -194 0
-13 -195 0
-14 -196 0
-8 -22 0
-9 -23 0
-10 -24 0
-11 -25 0
-12 -26 0
-13 -27 0
-14 -28 0
-8 -92 0
-9 -93 0
-10 -94 0
-11 -95 0
-12 -96 0
-13 -97 0
-14 -98 0
-8 -295 0
-9 -296 0
-10 -297 0
-11 -298 0
-12 -299 0
-13 -300 0
-14 -301 0
-8 -197 0
-9 -198 0
-10 -199 0
-11 -200 0
-12 -201 0
-13 -202 0
-14 -203 0
-8 -64 0
-9 -65 0
-10 -66 0
-11 -67 0
-12 -68 0
-13 -69 0
-14 -70 0
-8 -274 0
-9 -275 0
-10 -276 0
-11 -277 0
-12 -278 0
-13 -279 0
-14 -280 0
-8 -218 0
-9 -219 0
-10 -220 0
-11 -221 0
-12 -222 0
-13 -223 0
-14 -224 0
-8 -162 0
-9 -163 0
-10 -164 0
-11 -165 0
-12 -166 0
-13 -167 0
-14 -168 0
-8 -113 0
-9 -114 0
-10 -115 0
-11 -116 0
-12 -117 0
-13 -118 0
-14 -119 0
-15 -148 0
-16 -149 0
-17 -150 0
-18 -151 0
-19 -152 0
-20 -153 0
-21 -154 0
-15 -211 0
-16 -212 0
-17 -213 0
-18 -214 0
-19 -215 0
-20 -216 0
-21 -217 0
-15 -92 0
-16 -93 0
-17 -94 0
-18 -95 0
-19 -96 0
-20 -97 0
-21 -98 0
-15 -225 0
-16 -226 0
-17 -227 0
-18 -228 0
-19 -229 0
-20 -230 0
-21 -231 0
-15 -281 0
-16 -282 0
-17 -283 0
-18 -284 0
-19 -285 0
-20 -286 0
-21 -287 0
-15 -295 0
-16 -296 0
-17 -297 0
-18 -298 0
-19 -299 0
-20 -300 0
-21 -301 0
-15 -155 0
-16 -156 0
-17 -157 0
-18 -158 0
-19 -159 0
-20 -160 0
-21 -161 0
-15 -246 0
-16 -247 0
-17 -248 0
-18 -249 0
-19 -250 0
-20 -251 0
-21 -252 0
-15 -43 0
-16 -44 0
-17 -45 0
-18 -46 0
-19 -47 0
-20 -48 0
-21 -49 0
-15 -204 0
-16 -205 0
-17 -206 0
-18 -207 0
-19 -208 0
-20 -209 0
-21 -210 0
-15 -106 0
-16 -107 0
-17 -108 0
-18 -109 0
-19 -110 0
-20 -111 0
-21 -112 0
-15 -78 0
-16 -79 0
-17 -80 0
-18 -81 0
-19 -82 0
-20 -83 0
-21 -84 0
-15 -162 0
-16 -163 0
-17 -164 0
-18 -165 0
-19 -166 0
-20 -167 0
-21 -168 0
-15 -169 0
-16 -170 0
-17 -171 0
-18 -172 0
-19 -173 0
-20 -174 0
-21 -175 0
-15 -232 0
-16 -233 0
-17 -234 0
-18 -235 0
-19 -236 0
-20 -237 0
-21 -238 0
-15 -71 0
-16 -72 0
-17 -73 0
-18 -74 0
-19 -75 0
-20 -76 0
-21 -77 0
-22 -99 0
-23 -100 0
-24 -101 0
-25 -102 0
-26 -103 0
-27 -104 0
-28 -105 0
-22 -267 0
-23 -268 0
-24 -269 0
-25 -270 0
-26 -271 0
-27 -272 0
-28 -273 0
-22 -29 0
-23 -30 0
-24 -31 0
-25 -32 0
-26 -33 0
-27 -34 0
-28 -35 0
-22 -183 0
-23 -184 0
-24 -185 0
-25 -186 0
-26 -187 0
-27 -188 0
-28 -189 0
-22 -260 0
-23 -261 0
-24 -262 0
-25 -263 0
-26 -264 0
-27 -265 0
-28 -266 0
-22 -134 0
-23 -135 0
-24 -136 0
-25 -137 0
-26 -138 0
-27 -139 0
-28 -140 0
-22 -190 0
-23 -191 0
-24 -192 0
-25 -193 0
-26 -194 0
-27 -195 0
-28 -196 0
-22 -197 0
-23 -198 0
-24 -199 0
-25 -200 0
-26 -201 0
-27 -202 0
-28 -203 0
-22 -64 0
-23 -65 0
-24 -66 0
-25 -67 0
-26 -68 0
-27 -69 0
-28 -70 0
-22 -274 0
-23 -275 0
-24 -276 0
-25 -277 0
-26 -278 0
-27 -279 0
-28 -280 0
-22 -127 0
-23 -128 0
-24 -129 0
-25 -130 0
-26 -131 0
-27 -132 0
-28 -133 0
-22 -218 0
-23 -219 0
-24 -220 0
-25 -221 0
-26 -222 0
-27 -223 0
-28 -224 0
-22 -85 0
-23 -86 0
-24 -87 0
-25 -88 0
-26 -89 0
-27 -90 0
-28 -91 0
-22 -57 0
-23 -58 0
-24 -59 0
-25 -60 0
-26 -61 0
-27 -62 0
-28 -63 0
-22 -113 0
-23 -114 0
-24 -115 0
-25 -116 0
-26 -117 0
-27 -118 0
-28 -119 0
-29 -141 0
-30 -142 0
-31 -143 0
-32 -144 0
-33 -145 0
-34 -146 0
-35 -147 0
-29 -267 0
-30 -268 0
-31 -269 0
-32 -270 0
-33 -271 0
-34 -272 0
-35 -273 0
-29 -183 0
-30 -184 0
-31 -185 0
-32 -186 0
-33 -187 0
-34 -188 0
-35 -189 0
-29 -36 0
-30 -37 0
-31 -38 0
-32 -39 0
-33 -40 0
-34 -41 0
-35 -42 0
-29 -260 0
-30 -261 0
-31 -262 0
-32 -263 0
-33 -264 0
-34 -265 0
-35 -266 0
-29 -218 0
-30 -219 0
-31 -220 0
-32 -221 0
-33 -222 0
-34 -223 0
-35 -224 0
-29 -134 0
-30 -135 0
-31 -136 0
-32 -137 0
-33 -138 0
-34 -139 0
-35 -140 0
-29 -190 0
-30 -191 0
-31 -192 0
-32 -193 0
-33 -194 0
-34 -195 0
-35 -196 0
-29 -295 0
-30 -296 0
-31 -297 0
-32 -298 0
-33 -299 0
-34 -300 0
-35 -301 0
-29 -246 0
-30 -247 0
-31 -248 0
-32 -249 0
-33 -250 0
-34 -251 0
-35 -252 0
-29 -274 0
-30 -275 0
-31 -276 0
-32 -277 0
-33 -278 0
-34 -279 0
-35 -280 0
-29 -162 0
-30 -163 0
-31 -164 0
-32 -165 0
-33 -166 0
-34 -167 0
-35 -168 0
-36 -176 0
-37 -177 0
-38 -178 0
-39 -179 0
-40 -180 0
-41 -181 0
-42 -182 0
-36 -211 0
-37 -212 0
-38 -213 0
-39 -214 0
-40 -215 0
-41 -216 0
-42 -217 0
-36 -141 0
-37 -142 0
-38 -143 0
-39 -144 0
-40 -145 0
-41 -146 0
-42 -147 0
-36 -267 0
-37 -268 0
-38 -269 0
-39 -270 0
-40 -271 0
-41 -272 0
-42 -273 0
-36 -183 0
-37 -184 0
-38 -185 0
-39 -186 0
-40 -187 0
-41 -188 0
-42 -189 0
-36 -246 0
-37 -247 0
-38 -248 0
-39 -249 0
-40 -250 0
-41 -251 0
-42 -252 0
-36 -218 0
-37 -219 0
-38 -220 0
-39 -221 0
-40 -222 0
-41 -223 0
-42 -224 0
-36 -162 0
-37 -163 0
-38 -164 0
-39 -165 0
-40 -166 0
-41 -167 0
-42 -168 0
-36 -260 0
-37 -261 0
-38 -262 0
-39 -263 0
-40 -264 0
-41 -265 0
-42 -266 0
-36 -134 0
-37 -135 0
-38 -136 0
-39 -137 0
-40 -138 0
-41 -139 0
-42 -140 0
-36 -295 0
-37 -296 0
-38 -297 0
-39 -298 0
-40 -299 0
-41 -300 0
-42 -301 0
-36 -155 0
-37 -156 0
-38 -157 0
-39 -158 0
-40 -159 0
-41 -160 0
-42 -161 0
-36 -43 0
-37 -44 0
-38 -45 0
-39 -46 0
-40 -47 0
-41 -48 0
-42 -49 0
-43 -176 0
-44 -177 0
-45 -178 0
-46 -179 0
-47 -180 0
-48 -181 0
-49 -182 0
-43 -148 0
-44 -149 0
-45 -150 0
-46 -151 0
-47 -152 0
-48 -153 0
-49 -154 0
-43 -211 0
-44 -212 0
-45 -213 0
-46 -214 0
-47 -215 0
-48 -216 0
-49 -217 0
-43 -281 0
-44 -282 0
-45 -283 0
-46 -284 0
-47 -285 0
-48 -286 0
-49 -287 0
-43 -295 0
-44 -296 0
-45 -297 0
-46 -298 0
-47 -299 0
-48 -300 0
-49 -301 0
-43 -155 0
-44 -156 0
-45 -157 0
-46 -158 0
-47 -159 0
-48 -160 0
-49 -161 0
-43 -246 0
-44 -247 0
-45 -248 0
-46 -249 0
-47 -250 0
-48 -251 0
-49 -252 0
-43 -204 0
-44 -205 0
-45 -206 0
-46 -207 0
-47 -208 0
-48 -209 0
-49 -210 0
-43 -106 0
-44 -107 0
-45 -108 0
-46 -109 0
-47 -110 0
-48 -111 0
-49 -112 0
-43 -78 0
-44 -79 0
-45 -80 0
-46 -81 0
-47 -82 0
-48 -83 0
-49 -84 0
-43 -162 0
-44 -163 0
-45 -164 0
-46 -165 0
-47 -166 0
-48 -167 0
-49 -168 0
-43 -169 0
-44 -170 0
-45 -171 0
-46 -172 0
-47 -173 0
-48 -174 0
-49 -175 0
-50 -253 0
-51 -254 0
-52 -255 0
-53 -256 0
-54 -257 0
-55 -258 0
-56 -259 0
-50 -176 0
-51 -177 0
-52 -178 0
-53 -179 0
-54 -180 0
-55 -181 0
-56 -182 0
-50 -148 0
-51 -149 0
-52 -150 0
-53 -151 0
-54 -152 0
-55 -153 0
-56 -154 0
-50 -239 0
-51 -240 0
-52 -241 0
-53 -242 0
-54 -243 0
-55 -244 0
-56 -245 0
-50 -288 0
-51 -289 0
-52 -290 0
-53 -291 0
-54 -292 0
-55 -293 0
-56 -294 0
-50 -99 0
-51 -100 0
-52 -101 0
-53 -102 0
-54 -103 0
-55 -104 0
-56 -105 0
-50 -64 0
-51 -65 0
-52 -66 0
-53 -67 0
-54 -68 0
-55 -69 0
-56 -70 0
-50 -127 0
-51 -128 0
-52 -129 0
-53 -130 0
-54 -131 0
-55 -132 0
-56 -133 0
-50 -120 0
-51 -121 0
-52 -122 0
-53 -123 0
-54 -124 0
-55 -125 0
-56 -126 0
-50 -169 0
-51 -170 0
-52 -171 0
-53 -172 0
-54 -173 0
-55 -174 0
-56 -175 0
-50 -232 0
-51 -233 0
-52 -234 0
-53 -235 0
-54 -236 0
-55 -237 0
-56 -238 0
-50 -204 0
-51 -205 0
-52 -206 0
-53 -207 0
-54 -208 0
-55 -209 0
-56 -210 0
-50 -106 0
-51 -107 0
-52 -108 0
-53 -109 0
-54 -110 0
-55 -111 0
-56 -112 0
-50 -85 0
-51 -86 0
-52 -87 0
-53 -88 0
-54 -89 0
-55 -90 0
-56 -91 0
-50 -57 0
-51 -58 0
-52 -59 0
-53 -60 0
-54 -61 0
-55 -62 0
-56 -63 0
-50 -71 0
-51 -72 0
-52 -73 0
-53 -74 0
-54 -75 0
-55 -76 0
-56 -77 0
-57 -288 0
-58 -289 0
-59 -290 0
-60 -291 0
-61 -292 0
-62 -293 0
-63 -294 0
-57 -99 0
-58 -100 0
-59 -101 0
-60 -102 0
-61 -103 0
-62 -104 0
-63 -105 0
-57 -190 0
-58 -191 0
-59 -192 0
-60 -193 0
-61 -194 0
-62 -195 0
-63 -196 0
-57 -225 0
-58 -226 0
-59 -227 0
-60 -228 0
-61 -229 0
-62 -230 0
-63 -231 0
-57 -197 0
-58 -198 0
-59 -199 0
-60 -200 0
-61 -201 0
-62 -202 0
-63 -203 0
-57 -64 0
-58 -65 0
-59 -66 0
-60 -67 0
-61 -68 0
-62 -69 0
-63 -70 0
-57 -127 0
-58 -128 0
-59 -129 0
-60 -130 0
-61 -131 0
-62 -132 0
-63 -133 0
-57 -120 0
-58 -121 0
-59 -122 0
-60 -123 0
-61 -124 0
-62 -125 0
-63 -126 0
-57 -274 0
-58 -275 0
-59 -276 0
-60 -277 0
-61 -278 0
-62 -279 0
-63 -280 0
-57 -85 0
-58 -86 0
-59 -87 0
-60 -88 0
-61 -89 0
-62 -90 0
-63 -91 0
-57 -232 0
-58 -233 0
-59 -234 0
-60 -235 0
-61 -236 0
-62 -237 0
-63 -238 0
-57 -71 0
-58 -72 0
-59 -73 0
-60 -74 0
-61 -75 0
-62 -76 0
-63 -77 0
-57 -113 0
-58 -114 0
-59 -115 0
-60 -116 0
-61 -117 0
-62 -118 0
-63 -119 0
-64 -239 0
-65 -240 0
-66 -241 0
-67 -242 0
-68 -243 0
-69 -244 0
-70 -245 0
-64 -288 0
-65 -289 0
-66 -290 0
-67 -291 0
-68 -292 0
-69 -293 0
-70 -294 0
-64 -99 0
-65 -100 0
-66 -101 0
-67 -102 0
-68 -103 0
-69 -104 0
-70 -105 0
-64 -267 0
-65 -268 0
-66 -269 0
-67 -270 0
-68 -271 0
-69 -272 0
-70 -273 0
-64 -260 0
-65 -261 0
-66 -262 0
-67 -263 0
-68 -264 0
-69 -265 0
-70 -266 0
-64 -190 0
-65 -191 0
-66 -192 0
-67 -193 0
-68 -194 0
-69 -195 0
-70 -196 0
-64 -197 0
-65 -198 0
-66 -199 0
-67 -200 0
-68 -201 0
-69 -202 0
-70 -203 0
-64 -127 0
-65 -128 0
-66 -129 0
-67 -130 0
-68 -131 0
-69 -132 0
-70 -133 0
-64 -274 0
-65 -275 0
-66 -276 0
-67 -277 0
-68 -278 0
-69 -279 0
-70 -280 0
-64 -120 0
-65 -121 0
-66 -122 0
-67 -123 0
-68 -124 0
-69 -125 0
-70 -126 0
-64 -85 0
-65 -86 0
-66 -87 0
-67 -88 0
-68 -89 0
-69 -90 0
-70 -91 0
-64 -113 0
-65 -114 0
-66 -115 0
-67 -116 0
-68 -117 0
-69 -118 0
-70 -119 0
-71 -92 0
-72 -93 0
-73 -94 0
-74 -95 0
-75 -96 0
-76 -97 0
-77 -98 0
-71 -225 0
-72 -226 0
-73 -227 0
-74 -228 0
-75 -229 0
-76 -230 0
-77 -231 0
-71 -281 0
-72 -282 0
-73 -283 0
-74 -284 0
-75 -285 0
-76 -286 0
-77 -287 0
-71 -197 0
-72 -198 0
-73 -199 0
-74 -200 0
-75 -201 0
-76 -202 0
-77 -203 0
-71 -127 0
-72 -128 0
-73 -129 0
-74 -130 0
-75 -131 0
-76 -132 0
-77 -133 0
-71 -120 0
-72 -121 0
-73 -122 0
-74 -123 0
-75 -124 0
-76 -125 0
-77 -126 0
-71 -204 0
-72 -205 0
-73 -206 0
-74 -207 0
-75 -208 0
-76 -209 0
-77 -210 0
-71 -106 0
-72 -107 0
-73 -108 0
-74 -109 0
-75 -110 0
-76 -111 0
-77 -112 0
-71 -78 0
-72 -79 0
-73 -80 0
-74 -81 0
-75 -82 0
-76 -83 0
-77 -84 0
-71 -169 0
-72 -170 0
-73 -171 0
-74 -172 0
-75 -173 0
-76 -174 0
-77 -175 0
-71 -85 0
-72 -86 0
-73 -87 0
-74 -88 0
-75 -89 0
-76 -90 0
-77 -91 0
-71 -232 0
-72 -233 0
-73 -234 0
-74 -235 0
-75 -236 0
-76 -237 0
-77 -238 0
-71 -113 0
-72 -114 0
-73 -115 0
-74 -116 0
-75 -117 0
-76 -118 0
-77 -119 0
-78 -92 0
-79 -93 0
-80 -94 0
-81 -95 0
-82 -96 0
-83 -97 0
-84 -98 0
-78 -225 0
-79 -226 0
-80 -227 0
-81 -228 0
-82 -229 0
-83 -230 0
-84 -231 0
-78 -281 0
-79 -282 0
-80 -283 0
-81 -284 0
-82 -285 0
-83 -286 0
-84 -287 0
-78 -295 0
-79 -296 0
-80 -297 0
-81 -298 0
-82 -299 0
-83 -300 0
-84 -301 0
-78 -155 0
-79 -156 0
-80 -157 0
-81 -158 0
-82 -159 0
-83 -160 0
-84 -161 0
-78 -120 0
-79 -121 0
-80 -122 0
-81 -123 0
-82 -124 0
-83 -125 0
-84 -126 0
-78 -204 0
-79 -205 0
-80 -206 0
-81 -207 0
-82 -208 0
-83 -209 0
-84 -210 0
-78 -106 0
-79 -107 0
-80 -108 0
-81 -109 0
-82 -110 0
-83 -111 0
-84 -112 0
-78 -169 0
-79 -170 0
-80 -171 0
-81 -172 0
-82 -173 0
-83 -174 0
-84 -175 0
-78 -85 0
-79 -86 0
-80 -87 0
-81 -88 0
-82 -89 0
-83 -90 0
-84 -91 0
-78 -232 0
-79 -233 0
-80 -234 0
-81 -235 0
-82 -236 0
-83 -237 0
-84 -238 0
-78 -113 0
-79 -114 0
-80 -115 0
-81 -116 0
-82 -117 0
-83 -118 0
-84 -119 0
-85 -134 0
-86 -135 0
-87 -136 0
-88 -137 0
-89 -138 0
-90 -139 0
-91 -140 0
-85 -190 0
-86 -191 0
-87 -192 0
-88 -193 0
-89 -194 0
-90 -195 0
-91 -196 0
-85 -92 0
-86 -93 0
-87 -94 0
-88 -95 0
-89 -96 0
-90 -97 0
-91 -98 0
-85 -225 0
-86 -226 0
-87 -227 0
-88 -228 0
-89 -229 0
-90 -230 0
-91 -231 0
-85 -281 0
-86 -282 0
-87 -283 0
-88 -284 0
-89 -285 0
-90 -286 0
-91 -287 0
-85 -197 0
-86 -198 0
-87 -199 0
-88 -200 0
-89 -201 0
-90 -202 0
-91 -203 0
-85 -127 0
-86 -128 0
-87 -129 0
-88 -130 0
-89 -131 0
-90 -132 0
-91 -133 0
-85 -120 0
-86 -121 0
-87 -122 0
-88 -123 0
-89 -124 0
-90 -125 0
-91 -126 0
-85 -106 0
-86 -107 0
-87 -108 0
-88 -109 0
-89 -110 0
-90 -111 0
-91 -112 0
-85 -113 0
-86 -114 0
-87 -115 0
-88 -116 0
-89 -117 0
-90 -118 0
-91 -119 0
-85 -232 0
-86 -233 0
-87 -234 0
-88 -235 0
-89 -236 0
-90 -237 0
-91 -238 0
-92 -183 0
-93 -184 0
-94 -185 0
-95 -186 0
-96 -187 0
-97 -188 0
-98 -189 0
-92 -134 0
-93 -135 0
-94 -136 0
-95 -137 0
-96 -138 0
-97 -139 0
-98 -140 0
-92 -190 0
-93 -191 0
-94 -192 0
-95 -193 0
-96 -194 0
-97 -195 0
-98 -196 0
-92 -225 0
-93 -226 0
-94 -227 0
-95 -228 0
-96 -229 0
-97 -230 0
-98 -231 0
-92 -281 0
-93 -282 0
-94 -283 0
-95 -284 0
-96 -285 0
-97 -286 0
-98 -287 0
-92 -295 0
-93 -296 0
-94 -297 0
-95 -298 0
-96 -299 0
-97 -300 0
-98 -301 0
-92 -113 0
-93 -114 0
-94 -115 0
-95 -116 0
-96 -117 0
-97 -118 0
-98 -119 0
-92 -155 0
-93 -156 0
-94 -157 0
-95 -158 0
-96 -159 0
-97 -160 0
-98 -161 0
-92 -197 0
-93 -198 0
-94 -199 0
-95 -200 0
-96 -201 0
-97 -202 0
-98 -203 0
-92 -162 0
-93 -163 0
-94 -164 0
-95 -165 0
-96 -166 0
-97 -167 0
-98 -168 0
-99 -253 0
-100 -254 0
-101 -255 0
-102 -256 0
-103 -257 0
-104 -258 0
-105 -259 0
-99 -176 0
-100 -177 0
-101 -178 0
-102 -179 0
-103 -180 0
-104 -181 0
-105 -182 0
-99 -239 0
-100 -240 0
-101 -241 0
-102 -242 0
-103 -243 0
-104 -244 0
-105 -245 0
-99 -141 0
-100 -142 0
-101 -143 0
-102 -144 0
-103 -145 0
-104 -146 0
-105 -147 0
-99 -288 0
-100 -289 0
-101 -290 0
-102 -291 0
-103 -292 0
-104 -293 0
-105 -294 0
-99 -267 0
-100 -268 0
-101 -269 0
-102 -270 0
-103 -271 0
-104 -272 0
-105 -273 0
-99 -127 0
-100 -128 0
-101 -129 0
-102 -130 0
-103 -131 0
-104 -132 0
-105 -133 0
-99 -274 0
-100 -275 0
-101 -276 0
-102 -277 0
-103 -278 0
-104 -279 0
-105 -280 0
-99 -260 0
-100 -261 0
-101 -262 0
-102 -263 0
-103 -264 0
-104 -265 0
-105 -266 0
-99 -197 0
-100 -198 0
-101 -199 0
-102 -200 0
-103 -201 0
-104 -202 0
-105 -203 0
-99 -120 0
-100 -121 0
-101 -122 0
-102 -123 0
-103 -124 0
-104 -125 0
-105 -126 0
-99 -218 0
-100 -219 0
-101 -220 0
-102 -221 0
-103 -222 0
-104 -223 0
-105 -224 0
-106 -253 0
-107 -254 0
-108 -255 0
-109 -256 0
-110 -257 0
-111 -258 0
-112 -259 0
-106 -148 0
-107 -149 0
-108 -150 0
-109 -151 0
-110 -152 0
-111 -153 0
-112 -154 0
-106 -211 0
-107 -212 0
-108 -213 0
-109 -214 0
-110 -215 0
-111 -216 0
-112 -217 0
-106 -225 0
-107 -226 0
-108 -227 0
-109 -228 0
-110 -229 0
-111 -230 0
-112 -231 0
-106 -281 0
-107 -282 0
-108 -283 0
-109 -284 0
-110 -285 0
-111 -286 0
-112 -287 0
-106 -155 0
-107 -156 0
-108 -157 0
-109 -158 0
-110 -159 0
-111 -160 0
-112 -161 0
-106 -120 0
-107 -121 0
-108 -122 0
-109 -123 0
-110 -124 0
-111 -125 0
-112 -126 0
-106 -204 0
-107 -205 0
-108 -206 0
-109 -207 0
-110 -208 0
-111 -209 0
-112 -210 0
-106 -169 0
-107 -170 0
-108 -171 0
-109 -172 0
-110 -173 0
-111 -174 0
-112 -175 0
-106 -232 0
-107 -233 0
-108 -234 0
-109 -235 0
-110 -236 0
-111 -237 0
-112 -238 0
-113 -183 0
-114 -184 0
-115 -185 0
-116 -186 0
-117 -187 0
-118 -188 0
-119 -189 0
-113 -134 0
-114 -135 0
-115 -136 0
-116 -137 0
-117 -138 0
-118 -139 0
-119 -140 0
-113 -190 0
-114 -191 0
-115 -192 0
-116 -193 0
-117 -194 0
-118 -195 0
-119 -196 0
-113 -225 0
-114 -226 0
-115 -227 0
-116 -228 0
-117 -229 0
-118 -230 0
-119 -231 0
-113 -281 0
-114 -282 0
-115 -283 0
-116 -284 0
-117 -285 0
-118 -286 0
-119 -287 0
-113 -295 0
-114 -296 0
-115 -297 0
-116 -298 0
-117 -299 0
-118 -300 0
-119 -301 0
-113 -197 0
-114 -198 0
-115 -199 0
-116 -200 0
-117 -201 0
-118 -202 0
-119 -203 0
-113 -120 0
-114 -121 0
-115 -122 0
-116 -123 0
-117 -124 0
-118 -125 0
-119 -126 0
-120 -253 0
-121 -254 0
-122 -255 0
-123 -256 0
-124 -257 0
-125 -258 0
-126 -259 0
-120 -288 0
-121 -289 0
-122 -290 0
-123 -291 0
-124 -292 0
-125 -293 0
-126 -294 0
-120 -225 0
-121 -226 0
-122 -227 0
-123 -228 0
-124 -229 0
-125 -230 0
-126 -231 0
-120 -197 0
-121 -198 0
-122 -199 0
-123 -200 0
-124 -201 0
-125 -202 0
-126 -203 0
-120 -127 0
-121 -128 0
-122 -129 0
-123 -130 0
-124 -131 0
-125 -132 0
-126 -133 0
-120 -232 0
-121 -233 0
-122 -234 0
-123 -235 0
-124 -236 0
-125 -237 0
-126 -238 0
-120 -169 0
-121 -170 0
-122 -171 0
-123 -172 0
-124 -173 0
-125 -174 0
-126 -175 0
-127 -253 0
-128 -254 0
-129 -255 0
-130 -256 0
-131 -257 0
-132 -258 0
-133 -259 0
-127 -239 0
-128 -240 0
-129 -241 0
-130 -242 0
-131 -243 0
-132 -244 0
-133 -245 0
-127 -288 0
-128 -289 0
-129 -290 0
-130 -291 0
-131 -292 0
-132 -293 0
-133 -294 0
-127 -267 0
-128 -268 0
-129 -269 0
-130 -270 0
-131 -271 0
-132 -272 0
-133 -273 0
-127 -197 0
-128 -198 0
-129 -199 0
-130 -200 0
-131 -201 0
-132 -202 0
-133 -203 0
-127 -274 0
-128 -275 0
-129 -276 0
-130 -277 0
-131 -278 0
-132 -279 0
-133 -280 0
-127 -169 0
-128 -170 0
-129 -171 0
-130 -172 0
-131 -173 0
-132 -174 0
-133 -175 0
-127 -232 0
-128 -233 0
-129 -234 0
-130 -235 0
-131 -236 0
-132 -237 0
-133 -238 0
-134 -183 0
-135 -184 0
-136 -185 0
-137 -186 0
-138 -187 0
-139 -188 0
-140 -189 0
-134 -260 0
-135 -261 0
-136 -262 0
-137 -263 0
-138 -264 0
-139 -265 0
-140 -266 0
-134 -190 0
-135 -191 0
-136 -192 0
-137 -193 0
-138 -194 0
-139 -195 0
-140 -196 0
-134 -295 0
-135 -296 0
-136 -297 0
-137 -298 0
-138 -299 0
-139 -300 0
-140 -301 0
-134 -225 0
-135 -226 0
-136 -227 0
-137 -228 0
-138 -229 0
-139 -230 0
-140 -231 0
-134 -281 0
-135 -282 0
-136 -283 0
-137 -284 0
-138 -285 0
-139 -286 0
-140 -287 0
-134 -155 0
-135 -156 0
-136 -157 0
-137 -158 0
-138 -159 0
-139 -160 0
-140 -161 0
-134 -197 0
-135 -198 0
-136 -199 0
-137 -200 0
-138 -201 0
-139 -202 0
-140 -203 0
-134 -162 0
-135 -163 0
-136 -164 0
-137 -165 0
-138 -166 0
-139 -167 0
-140 -168 0
-141 -253 0
-142 -254 0
-143 -255 0
-144 -256 0
-145 -257 0
-146 -258 0
-147 -259 0
-141 -176 0
-142 -177 0
-143 -178 0
-144 -179 0
-145 -180 0
-146 -181 0
-147 -182 0
-141 -148 0
-142 -149 0
-143 -150 0
-144 -151 0
-145 -152 0
-146 -153 0
-147 -154 0
-141 -211 0
-142 -212 0
-143 -213 0
-144 -214 0
-145 -215 0
-146 -216 0
-147 -217 0
-141 -239 0
-142 -240 0
-143 -241 0
-144 -242 0
-145 -243 0
-146 -244 0
-147 -245 0
-141 -267 0
-142 -268 0
-143 -269 0
-144 -270 0
-145 -271 0
-146 -272 0
-147 -273 0
-141 -218 0
-142 -219 0
-143 -220 0
-144 -221 0
-145 -222 0
-146 -223 0
-147 -224 0
-141 -288 0
-142 -289 0
-143 -290 0
-144 -291 0
-145 -292 0
-146 -293 0
-147 -294 0
-141 -260 0
-142 -261 0
-143 -262 0
-144 -263 0
-145 -264 0
-146 -265 0
-147 -266 0
-141 -246 0
-142 -247 0
-143 -248 0
-144 -249 0
-145 -250 0
-146 -251 0
-147 -252 0
-141 -274 0
-142 -275 0
-143 -276 0
-144 -277 0
-145 -278 0
-146 -279 0
-147 -280 0
-148 -253 0
-149 -254 0
-150 -255 0
-151 -256 0
-152 -257 0
-153 -258 0
-154 -259 0
-148 -176 0
-149 -177 0
-150 -178 0
-151 -179 0
-152 -180 0
-153 -181 0
-154 -182 0
-148 -211 0
-149 -212 0
-150 -213 0
-151 -214 0
-152 -215 0
-153 -216 0
-154 -217 0
-148 -204 0
-149 -205 0
-150 -206 0
-151 -207 0
-152 -208 0
-153 -209 0
-154 -210 0
-148 -169 0
-149 -170 0
-150 -171 0
-151 -172 0
-152 -173 0
-153 -174 0
-154 -175 0
-148 -239 0
-149 -240 0
-150 -241 0
-151 -242 0
-152 -243 0
-153 -244 0
-154 -245 0
-148 -288 0
-149 -289 0
-150 -290 0
-151 -291 0
-152 -292 0
-153 -293 0
-154 -294 0
-148 -246 0
-149 -247 0
-150 -248 0
-151 -249 0
-152 -250 0
-153 -251 0
-154 -252 0
-148 -232 0
-149 -233 0
-150 -234 0
-151 -235 0
-152 -236 0
-153 -237 0
-154 -238 0
-155 -211 0
-156 -212 0
-157 -213 0
-158 -214 0
-159 -215 0
-160 -216 0
-161 -217 0
-155 -183 0
-156 -184 0
-157 -185 0
-158 -186 0
-159 -187 0
-160 -188 0
-161 -189 0
-155 -225 0
-156 -226 0
-157 -227 0
-158 -228 0
-159 -229 0
-160 -230 0
-161 -231 0
-155 -281 0
-156 -282 0
-157 -283 0
-158 -284 0
-159 -285 0
-160 -286 0
-161 -287 0
-155 -295 0
-156 -296 0
-157 -297 0
-158 -298 0
-159 -299 0
-160 -300 0
-161 -301 0
-155 -246 0
-156 -247 0
-157 -248 0
-158 -249 0
-159 -250 0
-160 -251 0
-161 -252 0
-155 -162 0
-156 -163 0
-157 -164 0
-158 -165 0
-159 -166 0
-160 -167 0
-161 -168 0
-155 -204 0
-156 -205 0
-157 -206 0
-158 -207 0
-159 -208 0
-160 -209 0
-161 -210 0
-162 -211 0
-163 -212 0
-164 -213 0
-165 -214 0
-166 -215 0
-167 -216 0
-168 -217 0
-162 -183 0
-163 -184 0
-164 -185 0
-165 -186 0
-166 -187 0
-167 -188 0
-168 -189 0
-162 -281 0
-163 -282 0
-164 -283 0
-165 -284 0
-166 -285 0
-167 -286 0
-168 -287 0
-162 -295 0
-163 -296 0
-164 -297 0
-165 -298 0
-166 -299 0
-167 -300 0
-168 -301 0
-162 -246 0
-163 -247 0
-164 -248 0
-165 -249 0
-166 -250 0
-167 -251 0
-168 -252 0
-162 -218 0
-163 -219 0
-164 -220 0
-165 -221 0
-166 -222 0
-167 -223 0
-168 -224 0
-169 -253 0
-170 -254 0
-171 -255 0
-172 -256 0
-173 -257 0
-174 -258 0
-175 -259 0
-169 -176 0
-170 -177 0
-171 -178 0
-172 -179 0
-173 -180 0
-174 -181 0
-175 -182 0
-169 -211 0
-170 -212 0
-171 -213 0
-172 -214 0
-173 -215 0
-174 -216 0
-175 -217 0
-169 -239 0
-170 -240 0
-171 -241 0
-172 -242 0
-173 -243 0
-174 -244 0
-175 -245 0
-169 -288 0
-170 -289 0
-171 -290 0
-172 -291 0
-173 -292 0
-174 -293 0
-175 -294 0
-169 -204 0
-170 -205 0
-171 -206 0
-172 -207 0
-173 -208 0
-174 -209 0
-175 -210 0
-169 -232 0
-170 -233 0
-171 -234 0
-172 -235 0
-173 -236 0
-174 -237 0
-175 -238 0
-176 -253 0
-177 -254 0
-178 -255 0
-179 -256 0
-180 -257 0
-181 -258 0
-182 -259 0
-176 -211 0
-177 -212 0
-178 -213 0
-179 -214 0
-180 -215 0
-181 -216 0
-182 -217 0
-176 -239 0
-177 -240 0
-178 -241 0
-179 -242 0
-180 -243 0
-181 -244 0
-182 -245 0
-176 -288 0
-177 -289 0
-178 -290 0
-179 -291 0
-180 -292 0
-181 -293 0
-182 -294 0
-176 -267 0
-177 -268 0
-178 -269 0
-179 -270 0
-180 -271 0
-181 -272 0
-182 -273 0
-176 -246 0
-177 -247 0
-178 -248 0
-179 -249 0
-180 -250 0
-181 -251 0
-182 -252 0
-176 -204 0
-177 -205 0
-178 -206 0
-179 -207 0
-180 -208 0
-181 -209 0
-182 -210 0
-176 -218 0
-177 -219 0
-178 -220 0
-179 -221 0
-180 -222 0
-181 -223 0
-182 -224 0
-183 -295 0
-184 -296 0
-185 -297 0
-186 -298 0
-187 -299 0
-188 -300 0
-189 -301 0
-183 -260 0
-184 -261 0
-185 -262 0
-186 -263 0
-187 -264 0
-188 -265 0
-189 -266 0
-183 -190 0
-184 -191 0
-185 -192 0
-186 -193 0
-187 -194 0
-188 -195 0
-189 -196 0
-183 -281 0
-184 -282 0
-185 -283 0
-186 -284 0
-187 -285 0
-188 -286 0
-189 -287 0
-183 -246 0
-184 -247 0
-185 -248 0
-186 -249 0
-187 -250 0
-188 -251 0
-189 -252 0
-183 -218 0
-184 -219 0
-185 -220 0
-186 -221 0
-187 -222 0
-188 -223 0
-189 -224 0
-190 -260 0
-191 -261 0
-192 -262 0
-193 -263 0
-194 -264 0
-195 -265 0
-196 -266 0
-190 -197 0
-191 -198 0
-192 -199 0
-193 -200 0
-194 -201 0
-195 -202 0
-196 -203 0
-190 -225 0
-191 -226 0
-192 -227 0
-193 -228 0
-194 -229 0
-195 -230 0
-196 -231 0
-190 -295 0
-191 -296 0
-192 -297 0
-193 -298 0
-194 -299 0
-195 -300 0
-196 -301 0
-190 -274 0
-191 -275 0
-192 -276 0
-193 -277 0
-194 -278 0
-195 -279 0
-196 -280 0
-197 -260 0
-198 -261 0
-199 -262 0
-200 -263 0
-201 -264 0
-202 -265 0
-203 -266 0
-197 -225 0
-198 -226 0
-199 -227 0
-200 -228 0
-201 -229 0
-202 -230 0
-203 -231 0
-197 -274 0
-198 -275 0
-199 -276 0
-200 -277 0
-201 -278 0
-202 -279 0
-203 -280 0
-204 -253 0
-205 -254 0
-206 -255 0
-207 -256 0
-208 -257 0
-209 -258 0
-210 -259 0
-204 -211 0
-205 -212 0
-206 -213 0
-207 -214 0
-208 -215 0
-209 -216 0
-210 -217 0
-204 -281 0
-205 -282 0
-206 -283 0
-207 -284 0
-208 -285 0
-209 -286 0
-210 -287 0
-204 -246 0
-205 -247 0
-206 -248 0
-207 -249 0
-208 -250 0
-209 -251 0
-210 -252 0
-204 -232 0
-205 -233 0
-206 -234 0
-207 -235 0
-208 -236 0
-209 -237 0
-210 -238 0
-211 -253 0
-212 -254 0
-213 -255 0
-214 -256 0
-215 -257 0
-216 -258 0
-217 -259 0
-211 -246 0
-212 -247 0
-213 -248 0
-214 -249 0
-215 -250 0
-216 -251 0
-217 -252 0
-211 -239 0
-212 -240 0
-213 -241 0
-214 -242 0
-215 -243 0
-216 -244 0
-217 -245 0
-211 -218 0
-212 -219 0
-213 -220 0
-214 -221 0
-215 -222 0
-216 -223 0
-217 -224 0
-218 -239 0
-219 -240 0
-220 -241 0
-221 -242 0
-222 -243 0
-223 -244 0
-224 -245 0
-218 -267 0
-219 -268 0
-220 -269 0
-221 -270 0
-222 -271 0
-223 -272 0
-224 -273 0
-218 -260 0
-219 -261 0
-220 -262 0
-221 -263 0
-222 -264 0
-223 -265 0
-224 -266 0
-218 -246 0
-219 -247 0
-220 -248 0
-221 -249 0
-222 -250 0
-223 -251 0
-224 -252 0
-218 -274 0
-219 -275 0
-220 -276 0
-221 -277 0
-222 -278 0
-223 -279 0
-224 -280 0
-225 -281 0
-226 -282 0
-227 -283 0
-228 -284 0
-229 -285 0
-230 -286 0
-231 -287 0
-225 -295 0
-226 -296 0
-227 -297 0
-228 -298 0
-229 -299 0
-230 -300 0
-231 -301 0
-225 -232 0
-226 -233 0
-227 -234 0
-228 -235 0
-229 -236 0
-230 -237 0
-231 -238 0
-232 -253 0
-233 -254 0
-234 -255 0
-235 -256 0
-236 -257 0
-237 -258 0
-238 -259 0
-232 -288 0
-233 -289 0
-234 -290 0
-235 -291 0
-236 -292 0
-237 -293 0
-238 -294 0
-239 -253 0
-240 -254 0
-241 -255 0
-242 -256 0
-243 -257 0
-244 -258 0
-245 -259 0
-239 -288 0
-240 -289 0
-241 -290 0
-242 -291 0
-243 -292 0
-244 -293 0
-245 -294 0
-239 -267 0
-240 -268 0
-241 -269 0
-242 -270 0
-243 -271 0
-244 -272 0
-245 -273 0
-239 -260 0
-240 -261 0
-241 -262 0
-242 -263 0
-243 -264 0
-244 -265 0
-245 -266 0
-239 -274 0
-240 -275 0
-241 -276 0
-242 -277 0
-243 -278 0
-244 -279 0
-245 -280 0
-246 -281 0
-247 -282 0
-248 -283 0
-249 -284 0
-250 -285 0
-251 -286 0
-252 -287 0
-246 -295 0
-247 -296 0
-248 -297 0
-249 -298 0
-250 -299 0
-251 -300 0
-252 -301 0
-253 -288 0
-254 -289 0
-255 -290 0
-256 -291 0
-257 -292 0
-258 -293 0
-259 -294 0
-253 -267 0
-254 -268 0
-255 -269 0
-256 -270 0
-257 -271 0
-258 -272 0
-259 -273 0
-260 -267 0
-261 -268 0
-262 -269 0
-263 -270 0
-264 -271 0
-265 -272 0
-266 -273 0
-260 -274 0
-261 -275 0
-262 -276 0
-263 -277 0
-264 -278 0
-265 -279 0
-266 -280 0
-267 -288 0
-268 -289 0
-269 -290 0
-270 -291 0
-271 -292 0
-272 -293 0
-273 -294 0
-267 -274 0
-268 -275 0
-269 -276 0
-270 -277 0
-271 -278 0
-272 -279 0
-273 -280 0
-274 -288 0
-275 -289 0
-276 -290 0
-277 -291 0
-278 -292 0
-279 -293 0
-280 -294 0
-281 -295 0
-282 -296 0
-283 -297 0
-284 -298 0
-285 -299 0
-286 -300 0
-287 -301 0
1 2 3 4 5 6 7 0
-1 -2 0
-1 -3 0
-1 -4 0
-1 -5 0
-1 -6 0
-1 -7 0
-2 -3 0
-2 -4 0
-2 -5 0
-2 -6 0
-2 -7 0
-3 -4 0
-3 -5 0
-3 -6 0
-3 -7 0
-4 -5 0
-4 -6 0
-4 -7 0
-5 -6 0
-5 -7 0
-6 -7 0
8 9 10 11 12 13 14 0
-8 -9 0
-8 -10 0
-8 -11 0
-8 -12 0
-8 -13 0
-8 -14 0
-9 -10 0
-9 -11 0
-9 -12 0
-9 -13 0
-9 -14 0
-10 -11 0
-10 -12 0
-10 -13 0
-10 -14 0
-11 -12 0
-11 -13 0
-11 -14 0
-12 -13 0
-12 -14 0
-13 -14 0
15 16 17 18 19 20 21 0
-15 -16 0
-15 -17 0
-15 -18 0
-15 -19 0
-15 -20 0
-15 -21 0
-16 -17 0
-16 -18 0
-16 -19 0
-16 -20 0
-16 -21 0
-17 -18 0
-17 -19 0
-17 -20 0
-17 -21 0
-18 -19 0
-18 -20 0
-18 -21 0
-19 -20 0
-19 -21 0
-20 -21 0
22 23 24 25 26 27 28 0
-22 -23 0
-22 -24 0
-22 -25 0
-22 -26 0
-22 -27 0
-22 -28 0
-23 -24 0
-23 -25 0
-23 -26 0
-23 -27 0
-23 -28 0
-24 -25 0
-24 -26 0
-24 -27 0
-24 -28 0
-25 -26 0
-25 -27 0
-25 -28 0
-26 -27 0
-26 -28 0
-27 -28 0
29 30 31 32 33 34 35 0
-29 -30 0
-29 -31 0
-29 -32 0
-29 -33 0
-29 -34 0
-29 -35 0
-30 -31 0
-30 -32 0
-30 -33 0
-30 -34 0
-30 -35 0
-31 -32 0
-31 -33 0
-31 -34 0
-31 -35 0
-32 -33 0
-32 -34 0
-32 -35 0
-33 -34 0
-33 -35 0
-34 -35 0
36 37 38 39 40 41 42 0
-36 -37 0
-36 -38 0
-36 -39 0
-36 -40 0
-36 -41 0
-36 -42 0
-37 -38 0
-37 -39 0
-37 -40 0
-37 -41 0
-37 -42 0
-38 -39 0
-38 -40 0
-38 -41 0
-38 -42 0
-39 -40 0
-39 -41 0
-39 -42 0
-40 -41 0
-40 -42 0
-41 -42 0
43 44 45 46 47 48 49 0
-43 -44 0
-43 -45 0
-43 -46 0
-43 -47 0
-43 -48 0
-43 -49 0
-44 -45 0
-44 -46 0
-44 -47 0
-44 -48 0
-44 -49 0
-45 -46 0
-45 -47 0
-45 -48 0
-45 -49 0
-46 -47 0
-46 -48 0
-46 -49 0
-47 -48 0
-47 -49 0
-48 -49 0
50 51 52 53 54 55 56 0
-50 -51 0
-50 -52 0
-50 -53 0
-50 -54 0
-50 -55 0
-50 -56 0
-51 -52 0
-51 -53 0
-51 -54 0
-51 -55 0
-51 -56 0
-52 -53 0
-52 -54 0
-52 -55 0
-52 -56 0
-53 -54 0
-53 -55 0
-53 -56 0
-54 -55 0
-54 -56 0
-55 -56 0
57 58 59 60 61 62 63 0
-57 -58 0
-57 -59 0
-57 -60 0
-57 -61 0
-57 -62 0
-57 -63 0
-58 -59 0
-58 -60 0
-58 -61 0
-58 -62 0
-58 -63 0
-59 -60 0
-59 -61 0
-59 -62 0
-59 -63 0
-60 -61 0
-60 -62 0
-60 -63 0
-61 -62 0
-61 -63 0
-62 -63 0
64 65 66 67 68 69 70 0
-64 -65 0
-64 -66 0
-64 -67 0
-64 -68 0
-64 -69 0
-64 -70 0
-65 -66 0
-65 -67 0
-65 -68 0
-65 -69 0
-65 -70 0
-66 -67 0
-66 -68 0
-66 -69 0
-66 -70 0
-67 -68 0
-67 -69 0
-67 -70 0
-68 -69 0
-68 -70 0
-69 -70 0
71 72 73 74 75 76 77 0
-71 -72 0
-71 -73 0
-71 -74 0
-71 -75 0
-71 -76 0
-71 -77 0
-72 -73 0
-72 -74 0
-72 -75 0
-72 -76 0
-72 -77 0
-73 -74 0
-73 -75 0
-73 -76 0
-73 -77 0
-74 -75 0
-74 -76 0
-74 -77 0
-75 -76 0
-75 -77 0
-76 -77 0
78 79 80 81 82 83 84 0
-78 -79 0
-78 -80 0
-78 -81 0
-78 -82 0
-78 -83 0
-78 -84 0
-79 -80 0
-79 -81 0
-79 -82 0
-79 -83 0
-79 -84 0
-80 -81 0
-80 -82 0
-80 -83 0
-80 -84 0
-81 -82 0
-81 -83 0
-81 -84 0
-82 -83 0
-82 -84 0
-83 -84 0
85 86 87 88 89 90 91 0
-85 -86 0
-85 -87 0
-85 -88 0
-85 -89 0
-85 -90 0
-85 -91 0
-86 -87 0
-86 -88 0
-86 -89 0
-86 -90 0
-86 -91 0
-87 -88 0
-87 -89 0
-87 -90 0
-87 -91 0
-88 -89 0
-88 -90 0
-88 -91 0
-89 -90 0
-89 -91 0
-90 -91 0
92 93 94 95 96 97 98 0
-92 -93 0
-92 -94 0
-92 -95 0
-92 -96 0
-92 -97 0
-92 -98 0
-93 -94 0
-93 -95 0
-93 -96 0
-93 -97 0
-93 -98 0
-94 -95 0
-94 -96 0
-94 -97 0
-94 -98 0
-95 -96 0
-95 -97 0
-95 -98 0
-96 -97 0
-96 -98 0
-97 -98 0
99 100 101 102 103 104 105 0
-99 -100 0
-99 -101 0
-99 -102 0
-99 -103 0
-99 -104 0
-99 -105 0
-100 -101 0
-100 -102 0
-100 -103 0
-100 -104 0
-100 -105 0
-101 -102 0
-101 -103 0
-101 -104 0
-101 -105 0
-102 -103 0
-102 -104 0
-102 -105 0
-103 -104 0
-103 -105 0
-104 -105 0
106 107 108 109 110 111 112 0
-106 -107 0
-106 -108 0
-106 -109 0
-106 -110 0
-106 -111 0
-106 -112 0
-107 -108 0
-107 -109 0
-107 -110 0
-107 -111 0
-107 -112 0
-108 -109 0
-108 -110 0
-108 -111 0
-108 -112 0
-109 -110 0
-109 -111 0
-109 -112 0
-110 -111 0
-110 -112 0
-111 -112 0
113 114 115 116 117 118 119 0
-113 -114 0
-113 -115 0
-113 -116 0
-113 -117 0
-113 -118 0
-113 -119 0
-114 -115 0
-114 -116 0
-114 -117 0
-114 -118 0
-114 -119 0
-115 -116 0
-115 -117 0
-115 -118 0
-115 -119 0
-116 -117 0
-116 -118 0
-116 -119 0
-117 -118 0
-117 -119 0
-118 -119 0
120 121 122 123 124 125 126 0
-120 -121 0
-120 -122 0
-120 -123 0
-120 -124 0
-120 -125 0
-120 -126 0
-121 -122 0
-121 -123 0
-121 -124 0
-121 -125 0
-121 -126 0
-122 -123 0
-122 -124 0
-122 -125 0
-122 -126 0
-123 -124 0
-123 -125 0
-123 -126 0
-124 -125 0
-124 -126 0
-125 -126 0
127 128 129 130 131 132 133 0
-127 -128 0
-127 -129 0
-127 -130 0
-127 -131 0
-127 -132 0
-127 -133 0
-128 -129 0
-128 -130 0
-128 -131 0
-128 -132 0
-128 -133 0
-129 -130 0
-129 -131 0
-129 -132 0
-129 -133 0
-130 -131 0
-130 -132 0
-130 -133 0
-131 -132 0
-131 -133 0
-132 -133 0
134 135 136 137 138 139 140 0
-134 -135 0
-134 -136 0
-134 -137 0
-134 -138 0
-134 -139 0
-134 -140 0
-135 -136 0
-135 -137 0
-135 -138 0
-135 -139 0
-135 -140 0
-136 -137 0
-136 -138 0
-136 -139 0
-136 -140 0
-137 -138 0
-137 -139 0
-137 -140 0
-138 -139 0
-138 -140 0
-139 -140 0
141 142 143 144 145 146 147 0
-141 -142 0
-141 -143 0
-141 -144 0
-141 -145 0
-141 -146 0
-141 -147 0
-142 -143 0
-142 -144 0
-142 -145 0
-142 -146 0
-142 -147 0
-143 -144 0
-143 -145 0
-143 -146 0
-143 -147 0
-144 -145 0
-144 -146 0
-144 -147 0
-145 -146 0
-145 -147 0
-146 -147 0
148 149 150 151 152 153 154 0
-148 -149 0
-148 -150 0
-148 -151 0
-148 -152 0
-148 -153 0
-148 -154 0
-149 -150 0
-149 -151 0
-149 -152 0
-149 -153 0
-149 -154 0
-150 -151 0
-150 -152 0
-150 -153 0
-150 -154 0
-151 -152 0
-151 -153 0
-151 -154 0
-152 -153 0
-152 -154 0
-153 -154 0
155 156 157 158 159 160 161 0
-155 -156 0
-155 -157 0
-155 -158 0
-155 -159 0
-155 -160 0
-155 -161 0
-156 -157 0
-156 -158 0
-156 -159 0
-156 -160 0
-156 -161 0
-157 -158 0
-157 -159 0
-157 -160 0
-157 -161 0
-158 -159 0
-158 -160 0
-158 -161 0
-159 -160 0
-159 -161 0
-160 -161 0
162 163 164 165 166 167 168 0
-162 -163 0
-162 -164 0
-162 -165 0
-162 -166 0
-162 -167 0
-162 -168 0
-163 -164 0
-163 -165 0
-163 -166 0
-163 -167 0
-163 -168 0
-164 -165 0
-164 -166 0
-164 -167 0
-164 -168 0
-165 -166 0
-165 -167 0
-165 -168 0
-166 -167 0
-166 -168 0
-167 -168 0
169 170 171 172 173 174 175 0
-169 -170 0
-169 -171 0
-169 -172 0
-169 -173 0
-169 -174 0
-169 -175 0
-170 -171 0
-170 -172 0
-170 -173 0
-170 -174 0
-170 -175 0
-171 -172 0
-171 -173 0
-171 -174 0
-171 -175 0
-172 -173 0
-172 -174 0
-172 -175 0
-173 -174 0
-173 -175 0
-174 -175 0
176 177 178 179 180 181 182 0
-176 -177 0
-176 -178 0
-176 -179 0
-176 -180 0
-176 -181 0
-176 -182 0
-177 -178 0
-177 -179 0
-177 -180 0
-177 -181 0
-177 -182 0
-178 -179 0
-178 -180 0
-178 -181 0
-178 -182 0
-179 -180 0
-179 -181 0
-179 -182 0
-180 -181 0
-180 -182 0
-181 -182 0
183 184 185 186 187 188 189 0
-183 -184 0
-183 -185 0
-183 -186 0
-183 -187 0
-183 -188 0
-183 -189 0
-184 -185 0
-184 -186 0
-184 -187 0
-184 -188 0
-184 -189 0
-185 -186 0
-185 -187 0
-185 -188 0
-185 -189 0
-186 -187 0
-186 -188 0
-186 -189 0
-187 -188 0
-187 -189 0
-188 -189 0
190 191 192 193 194 195 196 0
-190 -191 0
-190 -192 0
-190 -193 0
-190 -194 0
-190 -195 0
-190 -196 0
-191 -192 0
-191 -193 0
-191 -194 0
-191 -195 0
-191 -196 0
-192 -193 0
-192 -194 0
-192 -195 0
-192 -196 0
-193 -194 0
-193 -195 0
-193 -196 0
-194 -195 0
-194 -196 0
-195 -196 0
197 198 199 200 201 202 203 0
-197 -198 0
-197 -199 0
-197 -200 0
-197 -201 0
-197 -202 0
-197 -203 0
-198 -199 0
-198 -200 0
-198 -201 0
-198 -202 0
-198 -203 0
-199 -200 0
-199 -201 0
-199 -202 0
-199 -203 0
-200 -201 0
-200 -202 0
-200 -203 0
-201 -202 0
-201 -203 0
-202 -203 0
204 205 206 207 208 209 210 0
-204 -205 0
-204 -206 0
-204 -207 0
-204 -208 0
-204 -209 0
-204 -210 0
-205 -206 0
-205 -207 0
-205 -208 0
-205 -209 0
-205 -210 0
-206 -207 0
-206 -208 0
-206 -209 0
-206 -210 0
-207 -208 0
-207 -209 0
-207 -210 0
-208 -209 0
-208 -210 0
-209 -210 0
211 212 213 214 215 216 217 0
-211 -212 0
-211 -213 0
-211 -214 0
-211 -215 0
-211 -216 0
-211 -217 0
-212 -213 0
-212 -214 0
-212 -215 0
-212 -216 0
-212 -217 0
-213 -214 0
-213 -215 0
-213 -216 0
-213 -217 0
-214 -215 0
-214 -216 0
-214 -217 0
-215 -216 0
-215 -217 0
-216 -217 0
218 219 220 221 222 223 224 0
-218 -219 0
-218 -220 0
-218 -221 0
-218 -222 0
-218 -223 0
-218 -224 0
-219 -220 0
-219 -221 0
-219 -222 0
-219 -223 0
-219 -224 0
-220 -221 0
-220 -222 0
-220 -223 0
-220 -224 0
-221 -222 0
-221 -223 0
-221 -224 0
-222 -223 0
-222 -224 0
-223 -224 0
225 226 227 228 229 230 231 0
-225 -226 0
-225 -227 0
-225 -228 0
-225 -229 0
-225 -230 0
-225 -231 0
-226 -227 0
-226 -228 0
-226 -229 0
-226 -230 0
-226 -231 0
-227 -228 0
-227 -229 0
-227 -230 0
-227 -231 0
-228 -229 0
-228 -230 0
-228 -231 0
-229 -230 0
-229 -231 0
-230 -231 0
232 233 234 235 236 237 238 0
-232 -233 0
-232 -234 0
-232 -235 0
-232 -236 0
-232 -237 0
-232 -238 0
-233 -234 0
-233 -235 0
-233 -236 0
-233 -237 0
-233 -238 0
-234 -235 0
-234 -236 0
-234 -237 0
-234 -238 0
-235 -236 0
-235 -237 0
-235 -238 0
-236 -237 0
-236 -238 0
-237 -238 0
239 240 241 242 243 244 245 0
-239 -240 0
-239 -241 0
-239 -242 0
-239 -243 0
-239 -244 0
-239 -245 0
-240 -241 0
-240 -242 0
-240 -243 0
-240 -244 0
-240 -245 0
-241 -242 0
-241 -243 0
-241 -244 0
-241 -245 0
-242 -243 0
-242 -244 0
-242 -245 0
-243 -244 0
-243 -245 0
-244 -245 0
246 247 248 249 250 251 252 0
-246 -247 0
-246 -248 0
-246 -249 0
-246 -250 0
-246 -251 0
-246 -252 0
-247 -248 0
-247 -249 0
-247 -250 0
-247 -251 0
-247 -252 0
-248 -249 0
-248 -250 0
-248 -251 0
-248 -252 0
-249 -250 0
-249 -251 0
-249 -252 0
-250 -251 0
-250 -252 0
-251 -252 0
253 254 255 256 257 258 259 0
-253 -254 0
-253 -255 0
-253 -256 0
-253 -257 0
-253 -258 0
-253 -259 0
-254 -255 0
-254 -256 0
-254 -257 0
-254 -258 0
-254 -259 0
-255 -256 0
-255 -257 0
-255 -258 0
-255 -259 0
-256 -257 0
-256 -258 0
-256 -259 0
-257 -258 0
-257 -259 0
-258 -259 0
260 261 262 263 264 265 266 0
-260 -261 0
-260 -262 0
-260 -263 0
-260 -264 0
-260 -265 0
-260 -266 0
-261 -262 0
-261 -263 0
-261 -264 0
-261 -265 0
-261 -266 0
-262 -263 0
-262 -264 0
-262 -265 0
-262 -266 0
-263 -264 0
-263 -265 0
-263 -266 0
-264 -265 0
-264 -266 0
-265 -266 0
267 268 269 270 271 272 273 0
-267 -268 0
-267 -269 0
-267 -270 0
-267 -271 0
-267 -272 0
-267 -273 0
-268 -269 0
-268 -270 0
-268 -271 0
-268 -272 0
-268 -273 0
-269 -270 0
-269 -271 0
-269 -272 0
-269 -273 0
-270 -271 0
-270 -272 0
-270 -273 0
-271 -272 0
-271 -273 0
-272 -273 0
274 275 276 277 278 279 280 0
-274 -275 0
-274 -276 0
-274 -277 0
-274 -278 0
-274 -279 0
-274 -280 0
-275 -276 0
-275 -277 0
-275 -278 0
-275 -279 0
-275 -280 0
-276 -277 0
-276 -278 0
-276 -279 0
-276 -280 0
-277 -278 0
-277 -279 0
-277 -280 0
-278 -279 0
-278 -280 0
-279 -280 0
281 282 283 284 285 286 287 0
-281 -282 0
-281 -283 0
-281 -284 0
-281 -285 0
-281 -286 0
-281 -287 0
-282 -283 0
-282 -284 0
-282 -285 0
-282 -286 0
-282 -287 0
-283 -284 0
-283 -285 0
-283 -286 0
-283 -287 0
-284 -285 0
-284 -286 0
-284 -287 0
-285 -286 0
-285 -287 0
-286 -287 0
288 289 290 291 292 293 294 0
-288 -289 0
-288 -290 0
-288 -291 0
-288 -292 0
-288 -293 0
-288 -294 0
-289 -290 0
-289 -291 0
-289 -292 0
-289 -293 0
-289 -294 0
-290 -291 0
-290 -292 0
-290 -293 0
-290 -294 0
-291 -292 0
-291 -293 0
-291 -294 0
-292 -293 0
-292 -294 0
-293 -294 0
295 296 297 298 299 300 301 0
-295 -296 0
-295 -297 0
-295 -298 0
-295 -299 0
-295 -300 0
-295 -301 0
-296 -297 0
-296 -298 0
-296 -299 0
-296 -300 0
-296 -301 0
-297 -298 0
-297 -299 0
-297 -300 0
-297 -301 0
-298 -299 0
-298 -300 0
-298 -301 0
-299 -300 0
-299 -301 0
-300 -301 0
